Traveling Salesman Problem/TSP_generados/Aleatorio1620390849_5.tsp
NAME: Aleatorio1620390849_5.tsp
COMMENT: Randomly generated scenario
TYPE: TSP
DIMENSION: 5
EDGE_WEIGHT_TYPE: ATT
NODE_COORD_SECTION
1 44.66 12.22
2 19.97 35.44
3 28.34 1.49
4 44.98 28.81
5 2.63 30.85
