Traveling Salesman Problem/TSP_generados/Aleatorio1620390849_5.opt.tour
NAME: Aleatorio1620390849_5.opt.tour
COMMENT: Optimal solution for Aleatorio1620390849_5 (118.96136934434915)
TYPE: TOUR
DIMENSION: 5
TOUR_SECTION
1 3 5 2 4
-1
EOF
